6 6 74
3 5 1 5 2 5 3 24 34 34 48 48 63 
5 6 1 6 2 6 3 3 1 3 2 8 20 20 35 35 48 48 56 56 74 
2 1 1 1 2 28 40 40 57 
5 4 1 4 2 4 3 2 1 2 2 12 23 23 36 36 48 48 56 56 74 
5 4 1 5 1 5 1 2 1 2 1 0 12 12 18 18 24 24 36 36 48 
5 6 1 1 1 1 1 3 1 3 1 0 8 8 18 18 28 28 36 36 44 
